n = 25
Q1 = [0 0 45 0 0 0 0 31 0 7 9 0 26 0 0 0 0 0 0 18 0 27 0 0 0; 0 0 0 0 0 46 0 0 0 0 0 11 0 0 14 0 0 24 0 0 45 0 14 0 15; 0 0 0 0 0 0 0 32 0 6 0 0 0 0 0 0 0 0 0 15 21 0 0 0 0; 0 0 0 0 46 0 50 0 0 44 32 0 0 15 28 0 0 18 31 32 0 0 0 0 0; 0 0 0 0 0 0 0 0 0 0 31 0 0 0 0 0 0 0 0 18 0 24 46 12 32; 0 0 0 0 0 0 0 9 0 0 0 0 0 0 0 0 0 18 0 0 29 0 0 39 0; 0 0 0 0 0 0 0 0 0 0 0 28 0 0 36 22 0 0 0 9 0 45 0 10 0; 0 0 0 0 0 0 0 0 0 0 32 40 0 0 0 0 0 0 12 0 0 18 0 0 0; 0 0 0 0 0 0 0 0 0 0 16 0 0 0 0 0 0 0 0 0 22 0 32 0 0; 0 0 0 0 0 0 0 0 0 0 41 41 0 0 14 38 0 0 0 0 36 0 40 0 46; 0 0 0 0 0 0 0 0 0 0 0 0 0 0 0 0 47 0 0 0 0 0 34 0 0; 0 0 0 0 0 0 0 0 0 0 0 0 45 0 0 0 0 29 0 0 14 0 9 0 0; 0 0 0 0 0 0 0 0 0 0 0 0 0 0 0 0 0 0 0 0 0 49 29 0 9; 0 0 0 0 0 0 0 0 0 0 0 0 0 0 26 0 0 0 0 20 0 0 0 42 0; 0 0 0 0 0 0 0 0 0 0 0 0 0 0 0 0 26 0 0 0 0 0 0 0 0; 0 0 0 0 0 0 0 0 0 0 0 0 0 0 0 0 0 49 0 0 0 0 0 0 40; 0 0 0 0 0 0 0 0 0 0 0 0 0 0 0 0 0 0 0 0 42 0 50 0 0; 0 0 0 0 0 0 0 0 0 0 0 0 0 0 0 0 0 0 0 0 0 0 0 0 0; 0 0 0 0 0 0 0 0 0 0 0 0 0 0 0 0 0 0 0 48 0 15 42 0 0; 0 0 0 0 0 0 0 0 0 0 0 0 0 0 0 0 0 0 0 0 0 0 0 0 0; 0 0 0 0 0 0 0 0 0 0 0 0 0 0 0 0 0 0 0 0 0 0 0 0 0; 0 0 0 0 0 0 0 0 0 0 0 0 0 0 0 0 0 0 0 0 0 0 0 32 0; 0 0 0 0 0 0 0 0 0 0 0 0 0 0 0 0 0 0 0 0 0 0 0 5 0; 0 0 0 0 0 0 0 0 0 0 0 0 0 0 0 0 0 0 0 0 0 0 0 0 0; 0 0 0 0 0 0 0 0 0 0 0 0 0 0 0 0 0 0 0 0 0 0 0 0 0]
Q2 = [0.0 0.0 1.0 0.0 0.0 0.0 0.0 7.0 0.0 43.0 46.0 0.0 10.0 0.0 0.0 0.0 0.0 0.0 0.0 48.0 0.0 15.0 0.0 0.0 0.0; 0.0 0.0 0.0 0.0 0.0 4.0 0.0 0.0 0.0 0.0 0.0 50.0 0.0 0.0 36.0 0.0 0.0 42.0 0.0 0.0 2.0 0.0 49.0 0.0 38.0; 0.0 0.0 0.0 0.0 0.0 0.0 0.0 5.0 0.0 50.0 0.0 0.0 0.0 0.0 0.0 0.0 0.0 0.0 0.0 48.0 48.0 0.0 0.0 0.0 0.0; 0.0 0.0 0.0 0.0 1.0 0.0 0.0 0.0 0.0 6.0 10.0 0.0 0.0 43.0 10.0 0.0 0.0 49.0 4.0 16.0 0.0 0.0 0.0 0.0 0.0; 0.0 0.0 0.0 0.0 0.0 0.0 0.0 0.0 0.0 0.0 16.0 0.0 0.0 0.0 0.0 0.0 0.0 0.0 0.0 49.0 0.0 47.0 3.0 47.0 15.0; 0.0 0.0 0.0 0.0 0.0 0.0 0.0 46.0 0.0 0.0 0.0 0.0 0.0 0.0 0.0 0.0 0.0 50.0 0.0 0.0 11.0 0.0 0.0 1.0 0.0; 0.0 0.0 0.0 0.0 0.0 0.0 0.0 0.0 0.0 0.0 0.0 0.0 0.0 0.0 11.0 39.0 0.0 0.0 0.0 50.0 0.0 4.0 0.0 40.0 0.0; 0.0 0.0 0.0 0.0 0.0 0.0 0.0 0.0 0.0 0.0 15.0 1.0 0.0 0.0 0.0 0.0 0.0 0.0 45.0 0.0 0.0 38.0 0.0 0.0 0.0; 0.0 0.0 0.0 0.0 0.0 0.0 0.0 0.0 0.0 0.0 46.0 0.0 0.0 0.0 0.0 0.0 0.0 0.0 0.0 0.0 36.0 0.0 18.0 0.0 0.0; 0.0 0.0 0.0 0.0 0.0 0.0 0.0 0.0 0.0 0.0 7.0 7.0 0.0 0.0 44.0 7.0 0.0 0.0 0.0 0.0 10.0 0.0 2.0 0.0 3.0; 0.0 0.0 0.0 0.0 0.0 0.0 0.0 0.0 0.0 0.0 0.0 0.0 0.0 0.0 0.0 0.0 1.0 0.0 0.0 0.0 0.0 0.0 6.0 0.0 0.0; 0.0 0.0 0.0 0.0 0.0 0.0 0.0 0.0 0.0 0.0 0.0 0.0 3.0 0.0 0.0 0.0 0.0 15.0 0.0 0.0 36.0 0.0 47.0 0.0 0.0; 0.0 0.0 0.0 0.0 0.0 0.0 0.0 0.0 0.0 0.0 0.0 0.0 0.0 0.0 0.0 0.0 0.0 0.0 0.0 0.0 0.0 1.0 10.0 0.0 50.0; 0.0 0.0 0.0 0.0 0.0 0.0 0.0 0.0 0.0 0.0 0.0 0.0 0.0 0.0 4.0 0.0 0.0 0.0 0.0 50.0 0.0 0.0 0.0 3.0 0.0; 0.0 0.0 0.0 0.0 0.0 0.0 0.0 0.0 0.0 0.0 0.0 0.0 0.0 0.0 0.0 0.0 11.0 0.0 0.0 0.0 0.0 0.0 0.0 0.0 0.0; 0.0 0.0 0.0 0.0 0.0 0.0 0.0 0.0 0.0 0.0 0.0 0.0 0.0 0.0 0.0 0.0 0.0 0.0 0.0 0.0 0.0 0.0 0.0 0.0 3.0; 0.0 0.0 0.0 0.0 0.0 0.0 0.0 0.0 0.0 0.0 0.0 0.0 0.0 0.0 0.0 0.0 0.0 0.0 0.0 0.0 0.0 0.0 0.0 0.0 0.0; 0.0 0.0 0.0 0.0 0.0 0.0 0.0 0.0 0.0 0.0 0.0 0.0 0.0 0.0 0.0 0.0 0.0 0.0 0.0 0.0 0.0 0.0 0.0 0.0 0.0; 0.0 0.0 0.0 0.0 0.0 0.0 0.0 0.0 0.0 0.0 0.0 0.0 0.0 0.0 0.0 0.0 0.0 0.0 0.0 0.0 0.0 50.0 0.0 0.0 0.0; 0.0 0.0 0.0 0.0 0.0 0.0 0.0 0.0 0.0 0.0 0.0 0.0 0.0 0.0 0.0 0.0 0.0 0.0 0.0 0.0 0.0 0.0 0.0 0.0 0.0; 0.0 0.0 0.0 0.0 0.0 0.0 0.0 0.0 0.0 0.0 0.0 0.0 0.0 0.0 0.0 0.0 0.0 0.0 0.0 0.0 0.0 0.0 0.0 0.0 0.0; 0.0 0.0 0.0 0.0 0.0 0.0 0.0 0.0 0.0 0.0 0.0 0.0 0.0 0.0 0.0 0.0 0.0 0.0 0.0 0.0 0.0 0.0 0.0 15.0 0.0; 0.0 0.0 0.0 0.0 0.0 0.0 0.0 0.0 0.0 0.0 0.0 0.0 0.0 0.0 0.0 0.0 0.0 0.0 0.0 0.0 0.0 0.0 0.0 45.0 0.0; 0.0 0.0 0.0 0.0 0.0 0.0 0.0 0.0 0.0 0.0 0.0 0.0 0.0 0.0 0.0 0.0 0.0 0.0 0.0 0.0 0.0 0.0 0.0 0.0 0.0; 0.0 0.0 0.0 0.0 0.0 0.0 0.0 0.0 0.0 0.0 0.0 0.0 0.0 0.0 0.0 0.0 0.0 0.0 0.0 0.0 0.0 0.0 0.0 0.0 0.0]
Q3 = [0 71 19 71 71 71 71 28 71 2 1 71 12 71 71 71 71 71 71 2 71 14 71 71 71; 0 0 71 71 71 17 71 71 71 71 71 9 71 71 14 71 71 5 71 71 10 71 3 71 0; 0 0 0 71 71 71 71 2 71 5 71 71 71 71 71 71 71 71 71 7 1 71 71 71 71; 0 0 0 0 6 71 6 71 71 18 10 71 71 0 11 71 71 2 46 18 71 71 71 71 71; 0 0 0 0 0 71 71 71 71 71 15 71 71 71 71 71 71 71 71 4 71 0 20 9 16; 0 0 0 0 0 0 71 15 71 71 71 71 71 71 71 71 71 0 71 71 16 71 71 27 71; 0 0 0 0 0 0 0 71 71 71 71 57 71 71 23 9 71 71 71 11 71 2 71 17 71; 0 0 0 0 0 0 0 0 71 71 7 3 71 71 71 71 71 71 3 71 71 1 71 71 71; 0 0 0 0 0 0 0 0 0 71 8 71 71 71 71 71 71 71 71 71 6 71 20 71 71; 0 0 0 0 0 0 0 0 0 0 22 1 71 71 10 13 71 71 71 71 4 71 26 71 16; 0 0 0 0 0 0 0 0 0 0 0 71 71 71 71 71 16 71 71 71 71 71 14 71 71; 0 0 0 0 0 0 0 0 0 0 0 0 8 71 71 71 71 22 71 71 18 71 5 71 71; 0 0 0 0 0 0 0 0 0 0 0 0 0 71 71 71 71 71 71 71 71 10 27 71 3; 0 0 0 0 0 0 0 0 0 0 0 0 0 0 62 71 71 71 71 1 71 71 71 23 71; 0 0 0 0 0 0 0 0 0 0 0 0 0 0 0 71 0 71 71 71 71 71 71 71 71; 0 0 0 0 0 0 0 0 0 0 0 0 0 0 0 0 71 13 71 71 71 71 71 71 27; 0 0 0 0 0 0 0 0 0 0 0 0 0 0 0 0 0 71 71 71 21 71 18 71 71; 0 0 0 0 0 0 0 0 0 0 0 0 0 0 0 0 0 0 71 71 71 71 71 71 71; 0 0 0 0 0 0 0 0 0 0 0 0 0 0 0 0 0 0 0 8 71 2 21 71 71; 0 0 0 0 0 0 0 0 0 0 0 0 0 0 0 0 0 0 0 0 71 71 71 71 71; 0 0 0 0 0 0 0 0 0 0 0 0 0 0 0 0 0 0 0 0 0 71 71 71 71; 0 0 0 0 0 0 0 0 0 0 0 0 0 0 0 0 0 0 0 0 0 0 71 5 71; 0 0 0 0 0 0 0 0 0 0 0 0 0 0 0 0 0 0 0 0 0 0 0 5 71; 0 0 0 0 0 0 0 0 0 0 0 0 0 0 0 0 0 0 0 0 0 0 0 0 71; 0 0 0 0 0 0 0 0 0 0 0 0 0 0 0 0 0 0 0 0 0 0 0 0 0]
